25
2 1 17
3 1 660
3 2 479
4 1 618
4 2 109
4 3 865
5 1 604
5 2 664
5 3 946
5 4 606
6 1 48
6 2 376
6 3 848
6 4 97
6 5 561
7 1 900
7 2 210
7 3 861
7 4 347
7 5 942
7 6 346
8 1 143
8 2 529
8 3 597
8 4 875
8 5 984
8 6 46
8 7 259
9 1 982
9 2 337
9 3 404
9 4 109
9 5 94
9 6 861
9 7 998
9 8 933
10 1 815
10 2 266
10 3 917
10 4 272
10 5 169
10 6 339
10 7 454
10 8 167
10 9 475
11 1 26
11 2 737
11 3 996
11 4 412
11 5 213
11 6 189
11 7 157
11 8 103
11 9 63
11 10 747
12 1 600
12 2 274
12 3 61
12 4 41
12 5 468
12 6 812
12 7 122
12 8 969
12 9 349
12 10 277
12 11 421
13 1 358
13 2 881
13 3 197
13 4 788
13 5 657
13 6 734
13 7 212
13 8 826
13 9 853
13 10 208
13 11 367
13 12 124
14 1 44
14 2 957
14 3 142
14 4 175
14 5 374
14 6 589
14 7 21
14 8 913
14 9 255
14 10 152
14 11 673
14 12 960
14 13 82
15 1 752
15 2 56
15 3 992
15 4 875
15 5 817
15 6 20
15 7 836
15 8 537
15 9 750
15 10 211
15 11 183
15 12 681
15 13 981
15 14 357
16 1 44
16 2 199
16 3 674
16 4 245
16 5 327
16 6 35
16 7 584
16 8 951
16 9 172
16 10 833
16 11 831
16 12 152
16 13 908
16 14 427
16 15 582
17 1 576
17 2 776
17 3 329
17 4 903
17 5 909
17 6 786
17 7 696
17 8 279
17 9 724
17 10 341
17 11 431
17 12 569
17 13 260
17 14 513
17 15 393
17 16 375
18 1 91
18 2 86
18 3 874
18 4 110
18 5 37
18 6 760
18 7 817
18 8 241
18 9 850
18 10 130
18 11 435
18 12 481
18 13 513
18 14 334
18 15 204
18 16 918
18 17 212
19 1 490
19 2 391
19 3 354
19 4 292
19 5 295
19 6 581
19 7 332
19 8 773
19 9 438
19 10 887
19 11 637
19 12 235
19 13 671
19 14 775
19 15 240
19 16 140
19 17 702
19 18 717
20 1 968
20 2 916
20 3 267
20 4 86
20 5 391
20 6 349
20 7 13
20 8 13
20 9 674
20 10 124
20 11 79
20 12 121
20 13 415
20 14 563
20 15 499
20 16 346
20 17 708
20 18 887
20 19 800
21 1 282
21 2 936
21 3 559
21 4 434
21 5 732
21 6 60
21 7 540
21 8 922
21 9 423
21 10 396
21 11 499
21 12 825
21 13 56
21 14 136
21 15 326
21 16 943
21 17 158
21 18 121
21 19 484
21 20 352
22 1 399
22 2 615
22 3 33
22 4 165
22 5 339
22 6 90
22 7 394
22 8 154
22 9 781
22 10 270
22 11 159
22 12 593
22 13 184
22 14 940
22 15 519
22 16 968
22 17 810
22 18 275
22 19 127
22 20 428
22 21 572
23 1 689
23 2 463
23 3 102
23 4 742
23 5 469
23 6 17
23 7 664
23 8 996
23 9 680
23 10 848
23 11 775
23 12 453
23 13 109
23 14 351
23 15 278
23 16 677
23 17 250
23 18 288
23 19 285
23 20 819
23 21 579
23 22 398
24 1 516
24 2 337
24 3 623
24 4 161
24 5 540
24 6 7
24 7 586
24 8 524
24 9 782
24 10 132
24 11 522
24 12 660
24 13 429
24 14 178
24 15 321
24 16 73
24 17 621
24 18 246
24 19 5
24 20 625
24 21 541
24 22 95
24 23 92
